job_count = 50 ;
duration = [|24, 22, 14, 2, 16, 17, 4, 15, 8, 11|23, 23, 3, 15, 9, 4, 13, 7, 4, 8|22, 18, 12, 19, 6, 7, 11, 9, 7, 9|19, 19, 18, 13, 7, 4, 5, 2, 14, 2|23, 3, 8, 10, 11, 15, 16, 15, 8, 12|23, 7, 10, 17, 11, 17, 17, 15, 8, 10|12, 19, 18, 3, 14, 17, 12, 16, 14, 5|11, 10, 21, 3, 8, 11, 8, 16, 10, 3|4, 9, 5, 21, 10, 5, 9, 7, 15, 5|17, 12, 13, 8, 2, 3, 5, 10, 7, 3|9, 15, 11, 8, 7, 18, 9, 3, 9, 14|17, 11, 19, 18, 3, 3, 12, 16, 4, 4|23, 6, 18, 11, 20, 18, 4, 7, 10, 5|10, 5, 6, 12, 10, 18, 16, 14, 14, 11|5, 18, 19, 17, 14, 17, 11, 11, 8, 6|11, 16, 6, 12, 19, 10, 6, 13, 12, 4|18, 8, 18, 4, 16, 10, 5, 11, 10, 4|5, 21, 4, 5, 4, 10, 11, 5, 8, 3|4, 17, 9, 10, 11, 17, 10, 7, 5, 11|4, 22, 22, 13, 4, 4, 10, 14, 2, 14|16, 11, 9, 13, 6, 16, 16, 7, 14, 14|3, 20, 8, 13, 17, 12, 11, 14, 9, 12|23, 7, 10, 13, 6, 4, 15, 8, 10, 6|3, 12, 7, 18, 20, 6, 2, 9, 9, 9|11, 18, 2, 9, 17, 6, 3, 16, 5, 10|18, 23, 13, 18, 11, 17, 6, 6, 13, 8|16, 7, 15, 4, 3, 6, 10, 6, 15, 7|9, 17, 8, 16, 6, 16, 8, 12, 9, 10|6, 21, 4, 11, 20, 9, 15, 8, 15, 9|13, 19, 15, 6, 2, 18, 8, 6, 4, 12|11, 3, 18, 19, 9, 2, 10, 12, 10, 5|22, 4, 6, 18, 17, 12, 5, 8, 5, 5|17, 23, 22, 11, 2, 9, 11, 3, 9, 13|5, 7, 14, 18, 17, 14, 10, 6, 13, 8|22, 13, 22, 20, 2, 6, 11, 7, 14, 10|9, 10, 20, 7, 8, 18, 11, 11, 6, 8|20, 7, 20, 8, 5, 17, 9, 7, 4, 2|2, 3, 8, 16, 18, 14, 17, 2, 6, 12|14, 9, 5, 3, 4, 13, 3, 4, 13, 8|12, 18, 17, 10, 15, 16, 12, 2, 14, 3|7, 10, 8, 8, 14, 6, 5, 16, 10, 3|5, 12, 10, 8, 18, 3, 13, 5, 12, 12|13, 23, 11, 11, 9, 6, 15, 3, 9, 5|21, 23, 6, 17, 7, 14, 8, 6, 12, 10|5, 2, 3, 19, 7, 6, 7, 8, 7, 14|12, 8, 8, 16, 17, 9, 4, 16, 15, 4|17, 2, 14, 8, 2, 2, 9, 3, 9, 9|4, 6, 6, 12, 10, 13, 10, 6, 13, 14|3, 8, 16, 4, 7, 4, 3, 16, 11, 14|15, 14, 17, 7, 9, 15, 4, 2, 12, 5|] ;
machine_count = 10 ;
cost = [|16, 21, 24, 29, 23, 38, 32, 41, 50, 40|18, 21, 31, 24, 38, 37, 29, 32, 29, 32|19, 24, 31, 33, 23, 42, 28, 37, 51, 43|28, 32, 32, 27, 34, 22, 35, 49, 51, 48|23, 30, 18, 32, 35, 30, 25, 30, 41, 53|17, 24, 23, 23, 27, 34, 40, 46, 30, 37|26, 23, 22, 32, 34, 27, 28, 28, 35, 39|26, 20, 25, 32, 38, 39, 41, 45, 40, 42|25, 26, 32, 22, 29, 29, 29, 31, 50, 52|26, 32, 30, 34, 22, 41, 35, 25, 40, 53|29, 17, 19, 39, 41, 40, 36, 29, 30, 31|27, 31, 34, 29, 25, 30, 45, 42, 48, 51|31, 18, 33, 24, 24, 37, 37, 30, 38, 40|23, 24, 22, 29, 29, 38, 38, 43, 29, 36|27, 19, 24, 21, 26, 22, 44, 47, 28, 31|18, 25, 30, 27, 36, 30, 23, 44, 29, 53|25, 33, 20, 23, 28, 28, 44, 28, 48, 46|27, 19, 26, 32, 25, 36, 27, 38, 45, 53|26, 25, 34, 27, 34, 27, 37, 43, 50, 28|24, 27, 22, 36, 30, 30, 29, 31, 35, 27|25, 29, 33, 39, 40, 23, 37, 41, 51, 36|26, 32, 34, 32, 22, 35, 41, 37, 28, 34|30, 22, 30, 24, 31, 25, 40, 38, 41, 29|26, 31, 29, 30, 34, 33, 27, 42, 45, 51|16, 28, 22, 23, 23, 38, 23, 40, 28, 46|27, 31, 24, 25, 36, 43, 45, 46, 45, 27|30, 23, 26, 32, 39, 30, 43, 39, 33, 37|18, 29, 32, 23, 22, 34, 31, 39, 45, 38|22, 30, 25, 36, 29, 31, 35, 27, 36, 30|21, 17, 24, 36, 30, 23, 44, 30, 48, 41|26, 26, 20, 34, 22, 38, 37, 25, 35, 27|30, 23, 24, 32, 40, 25, 40, 41, 42, 41|27, 29, 19, 39, 34, 29, 44, 30, 35, 50|16, 23, 32, 37, 37, 23, 44, 46, 31, 43|17, 25, 33, 27, 38, 29, 31, 42, 27, 50|22, 24, 32, 22, 31, 23, 30, 28, 26, 30|17, 32, 26, 37, 35, 26, 44, 32, 28, 32|29, 21, 27, 37, 24, 33, 30, 31, 39, 27|20, 22, 35, 31, 29, 41, 33, 47, 49, 50|23, 17, 22, 20, 39, 38, 27, 42, 33, 52|27, 21, 26, 36, 29, 29, 38, 45, 44, 52|17, 19, 23, 20, 26, 22, 35, 33, 39, 44|25, 33, 29, 20, 30, 41, 43, 28, 45, 38|23, 25, 18, 38, 25, 36, 41, 32, 49, 48|28, 24, 18, 20, 34, 38, 38, 33, 28, 27|18, 20, 28, 26, 30, 33, 36, 33, 45, 38|19, 17, 22, 30, 34, 41, 31, 42, 46, 27|25, 33, 19, 36, 39, 30, 24, 42, 47, 35|25, 33, 27, 26, 27, 27, 40, 28, 44, 28|19, 23, 21, 32, 31, 34, 36, 25, 43, 42|] ;
deadline = [33, 33, 33, 33, 33, 33, 33, 33, 33, 33, 33, 33, 33, 33, 33, 33, 33, 33, 33, 33, 33, 33, 33, 33, 33, 33, 33, 33, 33, 33, 33, 33, 33, 33, 33, 33, 33, 33, 33, 33, 33, 33, 33, 33, 33, 33, 33, 33, 33, 33] ;
release = [0, 0, 0, 0, 0, 0, 0, 0, 0, 0, 0, 0, 0, 0, 0, 0, 0, 0, 0, 0, 0, 0, 0, 0, 0, 0, 0, 0, 0, 0, 0, 0, 0, 0, 0, 0, 0, 0, 0, 0, 0, 0, 0, 0, 0, 0, 0, 0, 0, 0] ;
resource = [|8, 8, 8, 8, 8, 8, 8, 8, 8, 8|5, 5, 5, 5, 5, 5, 5, 5, 5, 5|2, 2, 2, 2, 2, 2, 2, 2, 2, 2|6, 6, 6, 6, 6, 6, 6, 6, 6, 6|1, 1, 1, 1, 1, 1, 1, 1, 1, 1|2, 2, 2, 2, 2, 2, 2, 2, 2, 2|9, 9, 9, 9, 9, 9, 9, 9, 9, 9|3, 3, 3, 3, 3, 3, 3, 3, 3, 3|8, 8, 8, 8, 8, 8, 8, 8, 8, 8|2, 2, 2, 2, 2, 2, 2, 2, 2, 2|7, 7, 7, 7, 7, 7, 7, 7, 7, 7|9, 9, 9, 9, 9, 9, 9, 9, 9, 9|3, 3, 3, 3, 3, 3, 3, 3, 3, 3|9, 9, 9, 9, 9, 9, 9, 9, 9, 9|1, 1, 1, 1, 1, 1, 1, 1, 1, 1|2, 2, 2, 2, 2, 2, 2, 2, 2, 2|8, 8, 8, 8, 8, 8, 8, 8, 8, 8|3, 3, 3, 3, 3, 3, 3, 3, 3, 3|8, 8, 8, 8, 8, 8, 8, 8, 8, 8|5, 5, 5, 5, 5, 5, 5, 5, 5, 5|9, 9, 9, 9, 9, 9, 9, 9, 9, 9|2, 2, 2, 2, 2, 2, 2, 2, 2, 2|2, 2, 2, 2, 2, 2, 2, 2, 2, 2|3, 3, 3, 3, 3, 3, 3, 3, 3, 3|4, 4, 4, 4, 4, 4, 4, 4, 4, 4|1, 1, 1, 1, 1, 1, 1, 1, 1, 1|4, 4, 4, 4, 4, 4, 4, 4, 4, 4|8, 8, 8, 8, 8, 8, 8, 8, 8, 8|7, 7, 7, 7, 7, 7, 7, 7, 7, 7|5, 5, 5, 5, 5, 5, 5, 5, 5, 5|2, 2, 2, 2, 2, 2, 2, 2, 2, 2|3, 3, 3, 3, 3, 3, 3, 3, 3, 3|9, 9, 9, 9, 9, 9, 9, 9, 9, 9|1, 1, 1, 1, 1, 1, 1, 1, 1, 1|8, 8, 8, 8, 8, 8, 8, 8, 8, 8|8, 8, 8, 8, 8, 8, 8, 8, 8, 8|9, 9, 9, 9, 9, 9, 9, 9, 9, 9|7, 7, 7, 7, 7, 7, 7, 7, 7, 7|8, 8, 8, 8, 8, 8, 8, 8, 8, 8|6, 6, 6, 6, 6, 6, 6, 6, 6, 6|6, 6, 6, 6, 6, 6, 6, 6, 6, 6|3, 3, 3, 3, 3, 3, 3, 3, 3, 3|3, 3, 3, 3, 3, 3, 3, 3, 3, 3|6, 6, 6, 6, 6, 6, 6, 6, 6, 6|3, 3, 3, 3, 3, 3, 3, 3, 3, 3|2, 2, 2, 2, 2, 2, 2, 2, 2, 2|5, 5, 5, 5, 5, 5, 5, 5, 5, 5|8, 8, 8, 8, 8, 8, 8, 8, 8, 8|4, 4, 4, 4, 4, 4, 4, 4, 4, 4|1, 1, 1, 1, 1, 1, 1, 1, 1, 1|] ;
capacities = [10, 10, 10, 10, 10, 10, 10, 10, 10, 10] ;
